12 16 9 10
1 18 7 19 4 19 14 11 2 17 10 18 18 14 12 8 
14.66 7.41 9.99 9.8 13.36 11.85 15.52 1.29 11.71 15.78 14.8 14.93 1.48 11.33 1.32 11.71 
12.01 5.87 9.39 12.88 12.18 11.35 10.36 7.35 1.81 14.25 13.41 6.28 3.53 3.4 10.45 0.57 
15.55 5.76 2.24 6.85 2.46 4.7 10.77 6.63 0.8 12.11 0.94 15.11 4.48 0.15 3.93 13.05 
14.73 5.54 10.81 6.78 2.8 0.42 3.59 14.14 15.34 10.12 14.69 6.61 5.15 7 11.65 12.07 
0.89 12.79 12.16 4.01 14.7 13.13 15.99 9.12 13.33 15.47 6.58 1.95 14.06 9.41 10.74 2.57 
5.28 3.78 10.91 13.02 15.18 4.06 13.88 5.68 10.36 1.08 15.27 6.91 15.63 9.78 8.37 12.12 
13.77 8.02 9.99 10.63 3.42 2.8 4.22 1.44 12.81 14.52 13.68 1.58 5.3 2.79 10.22 13.7 
14.35 10.69 8.58 5.5 6.6 5.09 5.97 12.87 14.73 6.84 3.17 1.69 7.57 12.39 1.99 8.06 
2.28 6.24 12.37 12.28 11.69 2.71 6.56 10.85 2.28 10.56 9.96 4.99 14.2 6.37 8.3 2.71 
8 8 8 8 8 8 8 8 8 8 8 8 8 8 8 8 
14.8 0 12.33 6.07 12.58 2.52 4.64 2.17 8.94 4.88 11.34 12.23 8.51 2.34 12.34 6.17 
4.71 15.24 13.42 13.16 12.31 15.45 1.04 4.66 15.51 13.61 15.01 10.66 8.23 12.03 13.03 5.55 
1 1 1 1 1 1 1 1 1 1 1 1 1 1 1 1 
1 1 1 1 1 1 1 1 1 1 1 1 1 1 1 1 
1 1 1 1 1 1 1 1 1 1 1 1 1 1 1 1 
1 1 1 1 1 1 1 1 1 1 1 1 1 1 1 1 
1 1 1 1 1 1 1 1 1 1 1 1 1 1 1 1 
1 1 1 1 1 1 1 1 1 1 1 1 1 1 1 1 
1 1 1 1 1 1 1 1 1 1 1 1 1 1 1 1 
1 1 1 1 1 1 1 1 1 1 1 1 1 1 1 1 
1 1 1 1 1 1 1 1 1 1 1 1 1 1 1 1 
1 1 1 1 1 1 1 1 1 1 1 1 1 1 1 1 
1 1 1 1 1 1 1 1 1 1 1 1 1 1 1 1 
1 1 1 1 1 1 1 1 1 1 1 1 1 1 1 1 
0.01 0.01 0.01 0.01 0.01 0.01 0.01 0.01 0.01 0.01 0.01 0.01 0.01 0.01 0.01 0.01 
0.02 0.02 0.02 0.02 0.02 0.02 0.02 0.02 0.02 0.02 0.02 0.02 0.02 0.02 0.02 0.02 
0.03 0.03 0.03 0.03 0.03 0.03 0.03 0.03 0.03 0.03 0.03 0.03 0.03 0.03 0.03 0.03 
0.04 0.04 0.04 0.04 0.04 0.04 0.04 0.04 0.04 0.04 0.04 0.04 0.04 0.04 0.04 0.04 
0.05 0.05 0.05 0.05 0.05 0.05 0.05 0.05 0.05 0.05 0.05 0.05 0.05 0.05 0.05 0.05 
0.06 0.06 0.06 0.06 0.06 0.06 0.06 0.06 0.06 0.06 0.06 0.06 0.06 0.06 0.06 0.06 
0.07 0.07 0.07 0.07 0.07 0.07 0.07 0.07 0.07 0.07 0.07 0.07 0.07 0.07 0.07 0.07 
0.08 0.08 0.08 0.08 0.08 0.08 0.08 0.08 0.08 0.08 0.08 0.08 0.08 0.08 0.08 0.08 
0.09 0.09 0.09 0.09 0.09 0.09 0.09 0.09 0.09 0.09 0.09 0.09 0.09 0.09 0.09 0.09 
0.1 0.1 0.1 0.1 0.1 0.1 0.1 0.1 0.1 0.1 0.1 0.1 0.1 0.1 0.1 0.1 
0.5 0.5 0.5 0.5 0.5 0.5 0.5 0.5 0.5 0.5 0.5 0.5 0.5 0.5 0.5 0.5 
1 1 1 1 1 1 1 1 1 1 1 1 1 1 1 1 
